28 28
22
3 3 5 16
3 4 11 0
3 5 8 0
3 6 11 14
3 7 25 21
3 8 11 20
3 9 0 19
3 10 11 4
3 11 22 0
3 16 5 0
3 17 22 11
3 21 25 0
3 23 8 5
4 3 14 0
4 4 14 16
4 5 18 23
4 8 14 20
4 13 14 3
4 23 18 0
5 6 0 0
5 9 3 19
5 13 0 6
% time elapsed: 19.37 s
% time elapsed: 19.37 s
%%%mzn-stat: initTime=0.00034
%%%mzn-stat: solveTime=19.2819
%%%mzn-stat: solutions=73
%%%mzn-stat: variables=45
%%%mzn-stat: propagators=27
%%%mzn-stat: propagations=10147850
%%%mzn-stat: nodes=2093857
%%%mzn-stat: failures=1040386
%%%mzn-stat: restarts=1092
%%%mzn-stat: peakDepth=69
%%%mzn-stat-end
